NAME : ch130.tour
COMMENT : best solution found for ch130 (6145.0)
TYPE : TOUR 
DIMENSION : 130
TOUR_SECTION
9
13
66
12
95
121
54
59
50
41
43
92
36
21
39
46
22
32
20
17
107
7
125
113
2
82
29
58
120
77
89
124
84
65
27
114
116
111
61
104
127
15
44
4
10
75
108
60
128
123
63
68
85
87
25
6
96
69
62
42
103
106
126
0
40
38
70
129
49
1
117
79
45
19
3
34
53
16
33
30
26
18
99
14
28
23
115
94
78
86
11
80
102
76
93
88
109
97
67
47
24
112
31
35
83
118
110
122
100
81
56
8
55
64
51
74
73
98
72
91
37
105
52
119
57
48
71
90
5
101
-1
EOF